NAME: template4.png
TYPE: TSP
DIMENSION: 32
EDGE_WEIGHT_TYPE: EUC_2D
NODE_COORD_SECTION
1 1216.5 282.5
2 1465.5 282.5
3 1278.5 344.5
4 1403.5 344.5
5 1278.5 406.5
6 1403.5 406.5
7 1403.5 468.5
8 1278.5 469.5
9 1216.5 531.5
10 1278.5 531.5
11 1340.5 531.5
12 1403.5 531.5
13 1465.5 531.5
14 1154.5 593.5
15 1216.5 593.5
16 1341.5 593.5
17 1465.5 593.5
18 1527.5 593.5
19 1154.5 655.5
20 1216.5 655.5
21 1278.5 655.5
22 1341.5 655.5
23 1403.5 655.5
24 1465.5 655.5
25 1527.5 656.5
26 1154.5 718.5
27 1216.5 718.5
28 1278.5 718.5
29 1340.5 718.5
30 1403.5 718.5
31 1465.5 718.5
32 1527.5 718.5
EOF
